
#postproc_setup    = true

num_bands         =   33
num_wann          =   8

dis_win_max       = 17.0d0
dis_froz_max      =  6.4d0
dis_num_iter      =  120
dis_mix_ratio     = 1.d0

num_iter          = 50
num_print_cycles  = 10

Begin Atoms_Frac
Si   -0.12500000   -0.12500000   -0.12500000
Si    0.12500000    0.12500000    0.12500000
End Atoms_Frac
    
Begin Projections     
Si : sp3 
End Projections       

kpath = true
kpath_task = bands
kpath_num_points = 50
kpath_bands_colour = none
begin kpoint_path
G 0.000000 0.000000 0.000000 X 0.000000 0.500000 0.500000
X 0.000000 0.500000 0.500000 W 0.250000 0.750000 0.500000
W 0.250000 0.750000 0.500000 K 0.375000 0.750000 0.375000
K 0.375000 0.750000 0.375000 G 0.000000 0.000000 0.000000
G 0.000000 0.000000 0.000000 L 0.500000 0.500000 0.500000
L 0.500000 0.500000 0.500000 U 0.250000 0.625000 0.625000
U 0.250000 0.625000 0.625000 W 0.250000 0.750000 0.500000
W 0.250000 0.750000 0.500000 L 0.500000 0.500000 0.500000
L 0.500000 0.500000 0.500000 K 0.375000 0.750000 0.375000
K 0.375000 0.750000 0.375000 W 0.250000 0.750000 0.500000
W 0.250000 0.750000 0.500000 U 0.250000 0.625000 0.625000
U 0.250000 0.625000 0.625000 X 0.000000 0.500000 0.500000
end kpoint_path

Begin Unit_Cell_Cart
Angstrom
    0.00000000    2.71500000    2.71500000
    2.71500000    0.00000000    2.71500000
    2.71500000    2.71500000    0.00000000
End Unit_Cell_Cart

mp_grid      = 4 4 4

begin kpoints
    0.00000000    0.00000000    0.00000000
    0.00000000    0.25000000    0.00000000
    0.00000000    0.50000000    0.00000000
    0.00000000    0.75000000    0.00000000
    0.25000000    0.00000000    0.00000000
    0.25000000    0.25000000    0.00000000
    0.25000000    0.50000000    0.00000000
    0.25000000    0.75000000    0.00000000
    0.50000000    0.00000000    0.00000000
    0.50000000    0.25000000    0.00000000
    0.50000000    0.50000000    0.00000000
    0.50000000    0.75000000    0.00000000
    0.75000000    0.00000000    0.00000000
    0.75000000    0.25000000    0.00000000
    0.75000000    0.50000000    0.00000000
    0.75000000    0.75000000    0.00000000
    0.00000000    0.00000000    0.25000000
    0.00000000    0.25000000    0.25000000
    0.00000000    0.50000000    0.25000000
    0.00000000    0.75000000    0.25000000
    0.25000000    0.00000000    0.25000000
    0.25000000    0.25000000    0.25000000
    0.25000000    0.50000000    0.25000000
    0.25000000    0.75000000    0.25000000
    0.50000000    0.00000000    0.25000000
    0.50000000    0.25000000    0.25000000
    0.50000000    0.50000000    0.25000000
    0.50000000    0.75000000    0.25000000
    0.75000000    0.00000000    0.25000000
    0.75000000    0.25000000    0.25000000
    0.75000000    0.50000000    0.25000000
    0.75000000    0.75000000    0.25000000
    0.00000000    0.00000000    0.50000000
    0.00000000    0.25000000    0.50000000
    0.00000000    0.50000000    0.50000000
    0.00000000    0.75000000    0.50000000
    0.25000000    0.00000000    0.50000000
    0.25000000    0.25000000    0.50000000
    0.25000000    0.50000000    0.50000000
    0.25000000    0.75000000    0.50000000
    0.50000000    0.00000000    0.50000000
    0.50000000    0.25000000    0.50000000
    0.50000000    0.50000000    0.50000000
    0.50000000    0.75000000    0.50000000
    0.75000000    0.00000000    0.50000000
    0.75000000    0.25000000    0.50000000
    0.75000000    0.50000000    0.50000000
    0.75000000    0.75000000    0.50000000
    0.00000000    0.00000000    0.75000000
    0.00000000    0.25000000    0.75000000
    0.00000000    0.50000000    0.75000000
    0.00000000    0.75000000    0.75000000
    0.25000000    0.00000000    0.75000000
    0.25000000    0.25000000    0.75000000
    0.25000000    0.50000000    0.75000000
    0.25000000    0.75000000    0.75000000
    0.50000000    0.00000000    0.75000000
    0.50000000    0.25000000    0.75000000
    0.50000000    0.50000000    0.75000000
    0.50000000    0.75000000    0.75000000
    0.75000000    0.00000000    0.75000000
    0.75000000    0.25000000    0.75000000
    0.75000000    0.50000000    0.75000000
    0.75000000    0.75000000    0.75000000
End Kpoints

