num_wann = 8
num_bands = 33
#exclude_bands = ...

guiding_centres = T

begin projections
Si : sp3
end projections

dis_win_max = 17.0
dis_froz_max = 6.4
dis_mix_ratio = 1.0

dis_num_iter = 1000
num_iter = 1000
num_print_cycles = 10

#wannier_plot = T
#wannier_plot_supercell = 2
#wannier_plot_list = 1 2 3 4 5 6 7 8

bands_plot = T
bands_num_points = 50
begin kpoint_path
G 0.000000 0.000000 0.000000 X 0.000000 0.500000 0.500000
X 0.000000 0.500000 0.500000 W 0.250000 0.750000 0.500000
W 0.250000 0.750000 0.500000 K 0.375000 0.750000 0.375000
K 0.375000 0.750000 0.375000 G 0.000000 0.000000 0.000000
G 0.000000 0.000000 0.000000 L 0.500000 0.500000 0.500000
L 0.500000 0.500000 0.500000 U 0.250000 0.625000 0.625000
U 0.250000 0.625000 0.625000 W 0.250000 0.750000 0.500000
W 0.250000 0.750000 0.500000 L 0.500000 0.500000 0.500000
L 0.500000 0.500000 0.500000 K 0.375000 0.750000 0.375000
K 0.375000 0.750000 0.375000 W 0.250000 0.750000 0.500000
W 0.250000 0.750000 0.500000 U 0.250000 0.625000 0.625000
U 0.250000 0.625000 0.625000 X 0.000000 0.500000 0.500000
end kpoint_path

begin unit_cell_cart
angstrom
    0.00000000    2.71500000    2.71500000
    2.71500000    0.00000000    2.71500000
    2.71500000    2.71500000    0.00000000
end unit_cell_cart

begin atoms_frac
Si   -0.12500000   -0.12500000   -0.12500000
Si    0.12500000    0.12500000    0.12500000
end atoms_frac

mp_grid = 4 4 4

begin kpoints
    0.00000000    0.00000000    0.00000000
    0.00000000    0.25000000    0.00000000
    0.00000000    0.50000000    0.00000000
    0.00000000    0.75000000    0.00000000
    0.25000000    0.00000000    0.00000000
    0.25000000    0.25000000    0.00000000
    0.25000000    0.50000000    0.00000000
    0.25000000    0.75000000    0.00000000
    0.50000000    0.00000000    0.00000000
    0.50000000    0.25000000    0.00000000
    0.50000000    0.50000000    0.00000000
    0.50000000    0.75000000    0.00000000
    0.75000000    0.00000000    0.00000000
    0.75000000    0.25000000    0.00000000
    0.75000000    0.50000000    0.00000000
    0.75000000    0.75000000    0.00000000
    0.00000000    0.00000000    0.25000000
    0.00000000    0.25000000    0.25000000
    0.00000000    0.50000000    0.25000000
    0.00000000    0.75000000    0.25000000
    0.25000000    0.00000000    0.25000000
    0.25000000    0.25000000    0.25000000
    0.25000000    0.50000000    0.25000000
    0.25000000    0.75000000    0.25000000
    0.50000000    0.00000000    0.25000000
    0.50000000    0.25000000    0.25000000
    0.50000000    0.50000000    0.25000000
    0.50000000    0.75000000    0.25000000
    0.75000000    0.00000000    0.25000000
    0.75000000    0.25000000    0.25000000
    0.75000000    0.50000000    0.25000000
    0.75000000    0.75000000    0.25000000
    0.00000000    0.00000000    0.50000000
    0.00000000    0.25000000    0.50000000
    0.00000000    0.50000000    0.50000000
    0.00000000    0.75000000    0.50000000
    0.25000000    0.00000000    0.50000000
    0.25000000    0.25000000    0.50000000
    0.25000000    0.50000000    0.50000000
    0.25000000    0.75000000    0.50000000
    0.50000000    0.00000000    0.50000000
    0.50000000    0.25000000    0.50000000
    0.50000000    0.50000000    0.50000000
    0.50000000    0.75000000    0.50000000
    0.75000000    0.00000000    0.50000000
    0.75000000    0.25000000    0.50000000
    0.75000000    0.50000000    0.50000000
    0.75000000    0.75000000    0.50000000
    0.00000000    0.00000000    0.75000000
    0.00000000    0.25000000    0.75000000
    0.00000000    0.50000000    0.75000000
    0.00000000    0.75000000    0.75000000
    0.25000000    0.00000000    0.75000000
    0.25000000    0.25000000    0.75000000
    0.25000000    0.50000000    0.75000000
    0.25000000    0.75000000    0.75000000
    0.50000000    0.00000000    0.75000000
    0.50000000    0.25000000    0.75000000
    0.50000000    0.50000000    0.75000000
    0.50000000    0.75000000    0.75000000
    0.75000000    0.00000000    0.75000000
    0.75000000    0.25000000    0.75000000
    0.75000000    0.50000000    0.75000000
    0.75000000    0.75000000    0.75000000
end kpoints
