&input
   fildyn = 'silicon.dyn.xml'
   flfrc = 'silicon.fc'
   zasr = 'crystal'
/
