&bands
   prefix = 'silicon'
   outdir = '.'
   filband = 'bands.out'
   lsym = .true.
/
