SYSTEM = silicon
ICHARG = 11
ISMEAR = 0
SIGMA = 0.01
