SYSTEM = silicon
ISMEAR = 0
SIGMA = 0.01
