system silicon
5.43
0.5 0.5 0.0
0.0 0.5 0.5
0.5 0.0 0.5
2
direct
0.00 0.00 0.00
0.25 0.25 0.25
